peakDumbCharging = 7400; 
Machine = anon_enum(16); 
machineSpeed = [3700,3700,3700,3700,3700,3700,3700,3700,3700,3700,3700,3700,3700,3700,3700,3700]; 
machineLoad = [3700,3700,3700,3700,3700,3700,3700,3700,3700,3700,3700,3700,3700,3700,3700,3700]; 
Car = anon_enum(8); 
demandCar = [5400,15920,7320,4760,5120,7880,11000,26880]; 
arrivalCar = [79,68,67,65,56,52,44,41]; 
departureCar = [82,74,71,68,59,58,48,51]; 
